Version identifier: 12.10.0.0 | 2019-11-26 | 843d4de
CPXPARAM_WorkMem                                 28672
Tried aggregator 2 times.
MIP Presolve eliminated 6 rows and 0 columns.
MIP Presolve added 12 rows and 0 columns.
Aggregator did 30 substitutions.
Reduced MIP has 48 rows, 50 columns, and 200 nonzeros.
Reduced MIP has 50 binaries, 0 generals, 0 SOSs, and 0 indicators.
Presolve time = 0,00 sec. (0,38 ticks)
Found incumbent of value 200,000000 after 0,00 sec. (0,44 ticks)
Probing time = 0,00 sec. (0,12 ticks)
Tried aggregator 1 time.
Detecting symmetries...
Reduced MIP has 48 rows, 50 columns, and 200 nonzeros.
Reduced MIP has 50 binaries, 0 generals, 0 SOSs, and 0 indicators.
Presolve time = 0,00 sec. (0,15 ticks)
Probing time = 0,00 sec. (0,12 ticks)
Clique table members: 200.
MIP emphasis: balance optimality and feasibility.
MIP search method: dynamic search.
Parallel mode: deterministic, using up to 16 threads.
Root relaxation solution time = 0,00 sec. (0,07 ticks)

        Nodes                                         Cuts/
   Node  Left     Objective  IInf  Best Integer    Best Bound    ItCnt     Gap

*     0+    0                          200,0000        0,0000           100,00%
*     0+    0                          181,0000        0,0000           100,00%
*     0+    0                          171,0000        0,0000           100,00%
      0     0      112,0000    32      171,0000      112,0000       11   34,50%
      0     0      112,0000    32      171,0000     Cuts: 112       25   34,50%
*     0+    0                          165,0000      112,0000            32,12%
      0     0      112,0000    32      165,0000      Cuts: 10       34   32,12%
      0     0      112,4000    32      165,0000     Cuts: 112       46   31,88%
      0     0      112,8000    32      165,0000       Cuts: 5       49   31,64%
      0     0      112,9000    32      165,0000  ZeroHalf: 13       51   31,58%
Detecting symmetries...
      0     0      113,0067    32      165,0000      Fract: 1       53   31,51%
      0     0      113,0889    32      165,0000   ZeroHalf: 1       55   31,46%
      0     0      113,2944    32      165,0000   ZeroHalf: 1       63   31,34%
      0     0      113,3046    32      165,0000   ZeroHalf: 1       65   31,33%
*     0+    0                          156,0000      113,3046            27,37%
      0     0        cutoff            156,0000      156,0000       65    0,00%
Elapsed time = 0,02 sec. (10,11 ticks, tree = 0,01 MB, solutions = 5)

Clique cuts applied:  3
Cover cuts applied:  2
Mixed integer rounding cuts applied:  1
Zero-half cuts applied:  4
Gomory fractional cuts applied:  1

Root node processing (before b&c):
  Real time             =    0,02 sec. (10,12 ticks)
Parallel b&c, 16 threads:
  Real time             =    0,00 sec. (0,00 ticks)
  Sync time (average)   =    0,00 sec.
  Wait time (average)   =    0,00 sec.
                          ------------
Total (root+branch&cut) =    0,02 sec. (10,12 ticks)
